9084284637352302578505,10,1,2,012,9,1,2,08,10,1,2,09,9,1,2,03,13,1,2,03,3,1,2,06,7,1,2,02,9,1,2,05,14,1,2,015,3,1,2,06,13,1,2,014,15,1,2,09,13,1,2,010,4,1,2,04,1,1,2,015,2,1,2,010,10,1,2,010,9,1,2,012,1,1,2,02,4,1,2,05,1,1,2,05,7,1,2,05,15,1,2,09,2,1,2,010,7,1,2,014,3,1,2,04,3,1,2,014,9,1,2,06,7,1,2,07,7,1,2,012,8,1,2,05,7,1,2,09,5,1,2,05,6,1,2,012,1,1,2,012,5,1,2,08,1,1,2,07,10,1,2,012,13,1,2,013,14,1,2,010,10,1,2,04,7,1,2,06,8,1,2,01,3,1,2,03,14,1,2,08,6,1,2,02,15,1,2,06,1,1,2,013,8,1,2,08,1,1,2,0